50
0 1 0.61 0.17
0 2 0.64 0.14
0 3 0.58 0.26
0 4 0.7 0.27
0 5 0.59 0.31
0 6 0.76 0.22
0 7 0.72 0.22
0 8 0.6 0.23
0 9 0.56 0.29
0 10 0.68 0.24
0 11 0.58 0.27
0 12 0.73 0.09
0 13 0.68 0.33
0 14 0.5 0.27
0 15 0.78 0.22
0 16 0.73 0.27
0 17 0.54 0.24
0 18 0.82 0.21
0 19 0.66 0.2
0 20 0.55 0.21
0 21 0.52 0.32
0 22 0.48 0.18
0 23 0.74 0.08
0 24 0.47 0.25
0 25 0.54 0.18
0 26 0.54 0.24
0 27 0.7 0.2
0 28 0.61 0.21
0 29 0.57 0.35
0 30 0.84 0.19
0 31 0.66 0.33
0 32 0.67 0.14
0 33 0.93 0.26
0 34 0.49 0.26
0 35 0.71 0.22
0 36 0.6 0.26
0 37 0.55 0.2
0 38 0.54 0.31
0 39 0.67 0.28
0 40 0.48 0.21
0 41 0.72 0.19
0 42 0.54 0.12
0 43 0.88 0.17
0 44 0.46 0.17
0 45 0.68 0.28
0 46 0.74 0.17
0 47 0.44 0.29
0 48 0.82 0.29
0 49 0.81 0.25
1 2 0.68 0.22
1 3 0.63 0.2
1 4 0.64 0.12
1 5 0.4 0.24
1 6 0.6 0.2
1 7 0.63 0.22
1 8 0.58 0.25
1 9 0.64 0.21
1 10 0.58 0.15
1 11 0.44 0.1
1 12 0.7 0.25
1 13 0.45 0.16
1 14 0.32 0.1
1 15 0.61 0.2
1 16 0.54 0.21
1 17 0.4 0.14
1 18 0.56 0.04
1 19 0.74 0.1
1 20 0.68 0.04
1 21 0.65 0.22
1 22 0.37 0.26
1 23 0.63 0.22
1 24 0.34 0.08
1 25 0.52 0.2
1 26 0.59 0.27
1 27 0.58 0.21
1 28 0.74 0.17
1 29 0.46 0.18
1 30 0.66 0.02
1 31 0.71 0.16
1 32 0.54 0.16
1 33 0.66 0.12
1 34 0.66 0.12
1 35 0.58 0.16
1 36 0.57 0.24
1 37 0.62 0.16
1 38 0.8 0.2
1 39 0.47 0.11
1 40 0.52 0.2
1 41 0.66 0.26
1 42 0.6 0.22
1 43 0.53 0.27
1 44 0.71 0.22
1 45 0.52 0.14
1 46 0.64 0.2
1 47 0.55 0.15
1 48 0.36 0.18
1 49 0.4 0.19
2 3 0.57 0.22
2 4 0.49 0.33
2 5 0.39 0.26
2 6 0.34 0.2
2 7 0.45 0.28
2 8 0.55 0.34
2 9 0.55 0.25
2 10 0.68 0.3
2 11 0.43 0.29
2 12 0.09 0.05
2 13 0.61 0.34
2 14 0.42 0.26
2 15 0.69 0.3
2 16 0.52 0.26
2 17 0.28 0.14
2 18 0.63 0.26
2 19 0.53 0.18
2 20 0.39 0.24
2 21 0.32 0.18
2 22 0.37 0.24
2 23 0.68 0.22
2 24 0.67 0.26
2 25 0.36 0.14
2 26 0.56 0.25
2 27 0.4 0.24
2 28 0.68 0.17
2 29 0.57 0.33
2 30 0.58 0.2
2 31 0.6 0.34
2 32 0.57 0.21
2 33 0.75 0.22
2 34 0.45 0.22
2 35 0.56 0.18
2 36 0.17 0.12
2 37 0.46 0.06
2 38 0.37 0.27
2 39 0.6 0.33
2 40 0.44 0.17
2 41 0.37 0.15
2 42 0.61 0.08
2 43 0.51 0.18
2 44 0.4 0.17
2 45 0.48 0.26
2 46 0.54 0.28
2 47 0.51 0.25
2 48 0.8 0.28
2 49 0.47 0.21
3 4 0.64 0.32
3 5 0.4 0.19
3 6 0.7 0.24
3 7 0.6 0.18
3 8 0.76 0.35
3 9 0.62 0.17
3 10 0.28 0.08
3 11 0.72 0.17
3 12 0.66 0.17
3 13 0.44 0.24
3 14 0.54 0.1
3 15 0.62 0.24
3 16 0.54 0.27
3 17 0.37 0.24
3 18 0.71 0.24
3 19 0.69 0.24
3 20 0.48 0.24
3 21 0.66 0.3
3 22 0.6 0.22
3 23 0.44 0.24
3 24 0.46 0.28
3 25 0.73 0.22
3 26 0.49 0.26
3 27 0.65 0.32
3 28 0.48 0.26
3 29 0.68 0.3
3 30 0.5 0.22
3 31 0.62 0.32
3 32 0.23 0.18
3 33 0.69 0.22
3 34 0.59 0.22
3 35 0.62 0.26
3 36 0.5 0.24
3 37 0.59 0.28
3 38 0.35 0.29
3 39 0.69 0.31
3 40 0.66 0.23
3 41 0.2 0.07
3 42 0.73 0.2
3 43 0.54 0.33
3 44 0.38 0.31
3 45 0.61 0.22
3 46 0.63 0.34
3 47 0.63 0.15
3 48 0.82 0.35
3 49 0.67 0.31
4 5 0.24 0.19
4 6 0.6 0.25
4 7 0.26 0.24
4 8 0.66 0.29
4 9 0.44 0.17
4 10 0.68 0.26
4 11 0.6 0.2
4 12 0.44 0.29
4 13 0.68 0.1
4 14 0.42 0.22
4 15 0.46 0.15
4 16 0.38 0.2
4 17 0.48 0.25
4 18 0.68 0.08
4 19 0.68 0.22
4 20 0.59 0.16
4 21 0.64 0.27
4 22 0.42 0.21
4 23 0.71 0.19
4 24 0.61 0.18
4 25 0.65 0.23
4 26 0.44 0.2
4 27 0.56 0.25
4 28 0.62 0.21
4 29 0.47 0.13
4 30 0.8 0.14
4 31 0.66 0.17
4 32 0.66 0.25
4 33 0.6 0.16
4 34 0.54 0.16
4 35 0.47 0.19
4 36 0.46 0.27
4 37 0.74 0.28
4 38 0.63 0.24
4 39 0.38 0.01
4 40 0.51 0.19
4 41 0.84 0.27
4 42 0.65 0.29
4 43 0.42 0.25
4 44 0.78 0.19
4 45 0.58 0.19
4 46 0.48 0.24
4 47 0.54 0.23
4 48 0.7 0.3
4 49 0.76 0.31
5 6 0.36 0.12
5 7 0.5 0.16
5 8 0.5 0.33
5 9 0.5 0.22
5 10 0.68 0.26
5 11 0.48 0.33
5 12 0.4 0.22
5 13 0.53 0.19
5 14 0.66 0.28
5 15 0.33 0.13
5 16 0.14 0.08
5 17 0.62 0.2
5 18 0.47 0.21
5 19 0.48 0.24
5 20 0.38 0.25
5 21 0.6 0.25
5 22 0.42 0.2
5 23 0.64 0.23
5 24 0.68 0.24
5 25 0.46 0.24
5 26 0.38 0.28
5 27 0.56 0.24
5 28 0.7 0.28
5 29 0.52 0.32
5 30 0.63 0.26
5 31 0.54 0.28
5 32 0.62 0.2
5 33 0.45 0.24
5 34 0.48 0.24
5 35 0.64 0.22
5 36 0.22 0.14
5 37 0.5 0.26
5 38 0.45 0.24
5 39 0.59 0.2
5 40 0.6 0.34
5 41 0.6 0.12
5 42 0.62 0.25
5 43 0.53 0.24
5 44 0.62 0.14
5 45 0.54 0.18
5 46 0.36 0.26
5 47 0.3 0.3
5 48 0.64 0.25
5 49 0.52 0.25
6 7 0.46 0.22
6 8 0.48 0.29
6 9 0.64 0.26
6 10 0.53 0.16
6 11 0.48 0.28
6 12 0.43 0.25
6 13 0.37 0.18
6 14 0.65 0.21
6 15 0.46 0.22
6 16 0.46 0.2
6 17 0.62 0.18
6 18 0.56 0.24
6 19 0.52 0.14
6 20 0.58 0.2
6 21 0.57 0.29
6 22 0.54 0.24
6 23 0.7 0.14
6 24 0.65 0.12
6 25 0.7 0.22
6 26 0.28 0.26
6 27 0.54 0.12
6 28 0.34 0.16
6 29 0.8 0.3
6 30 0.42 0.18
6 31 0.44 0.16
6 32 0.47 0.08
6 33 0.81 0.21
6 34 0.48 0.21
6 35 0.63 0.18
6 36 0.51 0.26
6 37 0.37 0.23
6 38 0.6 0.3
6 39 0.66 0.24
6 40 0.7 0.28
6 41 0.6 0.24
6 42 0.77 0.28
6 43 0.72 0.23
6 44 0.46 0.12
6 45 0.6 0.06
6 46 0.48 0.26
6 47 0.56 0.26
6 48 0.72 0.24
6 49 0.7 0.13
7 8 0.6 0.29
7 9 0.54 0.22
7 10 0.52 0.1
7 11 0.72 0.19
7 12 0.54 0.31
7 13 0.68 0.26
7 14 0.54 0.12
7 15 0.72 0.2
7 16 0.64 0.16
7 17 0.42 0.28
7 18 0.58 0.26
7 19 0.42 0.24
7 20 0.4 0.26
7 21 0.66 0.26
7 22 0.64 0.04
7 23 0.6 0.14
7 24 0.84 0.3
7 25 0.71 0.24
7 26 0.18 0.14
7 27 0.3 0.26
7 28 0.62 0.28
7 29 0.6 0.21
7 30 0.62 0.24
7 31 0.74 0.22
7 32 0.4 0.18
7 33 0.76 0.24
7 34 0.68 0.24
7 35 0.67 0.27
7 36 0.6 0.2
7 37 0.72 0.26
7 38 0.44 0.28
7 39 0.54 0.24
7 40 0.6 0.25
7 41 0.76 0.25
7 42 0.45 0.3
7 43 0.54 0.23
7 44 0.8 0.23
7 45 0.77 0.24
7 46 0.56 0.36
7 47 0.59 0.17
7 48 0.76 0.22
7 49 0.64 0.32
8 9 0.47 0.22
8 10 0.5 0.3
8 11 0.42 0.28
8 12 0.46 0.29
8 13 0.66 0.39
8 14 0.42 0.25
8 15 0.46 0.24
8 16 0.36 0.29
8 17 0.67 0.22
8 18 0.4 0.21
8 19 0.59 0.26
8 20 0.54 0.24
8 21 0.47 0.31
8 22 0.64 0.25
8 23 0.38 0.15
8 24 0.51 0.32
8 25 0.64 0.22
8 26 0.7 0.3
8 27 0.42 0.27
8 28 0.49 0.18
8 29 0.54 0.42
8 30 0.64 0.27
8 31 0.66 0.34
8 32 0.56 0.21
8 33 0.6 0.13
8 34 0.7 0.13
8 35 0.27 0.24
8 36 0.68 0.32
8 37 0.71 0.31
8 38 0.52 0.34
8 39 0.7 0.28
8 40 0.28 0.17
8 41 0.64 0.32
8 42 0.68 0.28
8 43 0.62 0.24
8 44 0.66 0.24
8 45 0.46 0.27
8 46 0.41 0.07
8 47 0.44 0.2
8 48 0.52 0.36
8 49 0.61 0.33
9 10 0.58 0.25
9 11 0.5 0.24
9 12 0.56 0.2
9 13 0.64 0.22
9 14 0.32 0.21
9 15 0.55 0.23
9 16 0.36 0.2
9 17 0.62 0.17
9 18 0.56 0.17
9 19 0.6 0.13
9 20 0.55 0.19
9 21 0.5 0.33
9 22 0.62 0.18
9 23 0.46 0.25
9 24 0.45 0.26
9 25 0.62 0.26
9 26 0.36 0.3
9 27 0.7 0.19
9 28 0.61 0.14
9 29 0.52 0.2
9 30 0.54 0.23
9 31 0.44 0.3
9 32 0.62 0.19
9 33 0.62 0.09
9 34 0.66 0.09
9 35 0.65 0.22
9 36 0.42 0.14
9 37 0.6 0.26
9 38 0.44 0.12
9 39 0.34 0.18
9 40 0.36 0.23
9 41 0.42 0.1
9 42 0.63 0.23
9 43 0.78 0.24
9 44 0.64 0.25
9 45 0.32 0.2
9 46 0.36 0.29
9 47 0.8 0.16
9 48 0.51 0.18
9 49 0.54 0.36
10 11 0.44 0.12
10 12 0.64 0.25
10 13 0.16 0.16
10 14 0.26 0.05
10 15 0.61 0.3
10 16 0.69 0.26
10 17 0.64 0.29
10 18 0.56 0.19
10 19 0.42 0.25
10 20 0.71 0.19
10 21 0.53 0.22
10 22 0.64 0.14
10 23 0.32 0.16
10 24 0.44 0.2
10 25 0.54 0.17
10 26 0.34 0.18
10 27 0.56 0.27
10 28 0.2 0.18
10 29 0.4 0.31
10 30 0.6 0.17
10 31 0.63 0.24
10 32 0.51 0.22
10 33 0.8 0.17
10 34 0.72 0.17
10 35 0.59 0.21
10 36 0.58 0.19
10 37 0.58 0.3
10 38 0.63 0.35
10 39 0.58 0.26
10 40 0.5 0.18
10 41 0.48 0.15
10 42 0.56 0.23
10 43 0.66 0.25
10 44 0.42 0.25
10 45 0.64 0.14
10 46 0.47 0.29
10 47 0.55 0.1
10 48 0.56 0.32
10 49 0.42 0.26
11 12 0.52 0.24
11 13 0.6 0.26
11 14 0.18 0.07
11 15 0.29 0.28
11 16 0.48 0.28
11 17 0.59 0.2
11 18 0.44 0.12
11 19 0.7 0.2
11 20 0.6 0.14
11 21 0.54 0.32
11 22 0.46 0.23
11 23 0.67 0.28
11 24 0.57 0.18
11 25 0.53 0.19
11 26 0.74 0.28
11 27 0.74 0.29
11 28 0.3 0.2
11 29 0.67 0.28
11 30 0.62 0.12
11 31 0.27 0.16
11 32 0.66 0.26
11 33 0.53 0.15
11 34 0.7 0.15
11 35 0.51 0.23
11 36 0.26 0.21
11 37 0.34 0.26
11 38 0.55 0.28
11 39 0.46 0.19
11 40 0.6 0.12
11 41 0.56 0.24
11 42 0.7 0.25
11 43 0.67 0.23
11 44 0.44 0.24
11 45 0.72 0.24
11 46 0.6 0.23
11 47 0.63 0.08
11 48 0.75 0.28
11 49 0.56 0.28
12 13 0.68 0.29
12 14 0.38 0.21
12 15 0.6 0.3
12 16 0.54 0.25
12 17 0.37 0.19
12 18 0.54 0.21
12 19 0.62 0.23
12 20 0.3 0.22
12 21 0.41 0.23
12 22 0.46 0.27
12 23 0.74 0.17
12 24 0.76 0.21
12 25 0.45 0.09
12 26 0.65 0.2
12 27 0.49 0.19
12 28 0.62 0.12
12 29 0.48 0.33
12 30 0.67 0.23
12 31 0.6 0.31
12 32 0.56 0.23
12 33 0.66 0.17
12 34 0.36 0.17
12 35 0.52 0.13
12 36 0.26 0.17
12 37 0.55 0.11
12 38 0.46 0.22
12 39 0.51 0.28
12 40 0.52 0.12
12 41 0.46 0.1
12 42 0.54 0.03
12 43 0.42 0.23
12 44 0.49 0.21
12 45 0.46 0.26
12 46 0.62 0.23
12 47 0.6 0.2
12 48 0.72 0.28
12 49 0.54 0.16
13 14 0.42 0.21
13 15 0.58 0.16
13 16 0.55 0.11
13 17 0.48 0.23
13 18 0.48 0.18
13 19 0.58 0.26
13 20 0.6 0.2
13 21 0.56 0.28
13 22 0.64 0.23
13 23 0.45 0.29
13 24 0.6 0.08
13 25 0.7 0.2
13 26 0.5 0.3
13 27 0.4 0.22
13 28 0.36 0.31
13 29 0.56 0.23
13 30 0.66 0.14
13 31 0.72 0.24
13 32 0.67 0.26
13 33 0.76 0.26
13 34 0.8 0.26
13 35 0.66 0.16
13 36 0.44 0.24
13 37 0.5 0.28
13 38 0.72 0.31
13 39 0.42 0.11
13 40 0.6 0.29
13 41 0.64 0.31
13 42 0.4 0.26
13 43 0.64 0.33
13 44 0.26 0.25
13 45 0.5 0.14
13 46 0.54 0.33
13 47 0.6 0.22
13 48 0.6 0.34
13 49 0.58 0.3
14 15 0.47 0.26
14 16 0.64 0.28
14 17 0.56 0.24
14 18 0.48 0.14
14 19 0.68 0.2
14 20 0.68 0.14
14 21 0.54 0.27
14 22 0.57 0.16
14 23 0.58 0.21
14 24 0.57 0.18
14 25 0.71 0.12
14 26 0.56 0.23
14 27 0.79 0.22
14 28 0.46 0.17
14 29 0.49 0.28
14 30 0.72 0.12
14 31 0.45 0.23
14 32 0.54 0.26
14 33 0.54 0.12
14 34 0.66 0.12
14 35 0.33 0.16
14 36 0.44 0.14
14 37 0.52 0.26
14 38 0.63 0.3
14 39 0.64 0.21
14 40 0.68 0.13
14 41 0.71 0.17
14 42 0.56 0.18
14 43 0.66 0.24
14 44 0.5 0.21
14 45 0.64 0.19
14 46 0.42 0.24
14 47 0.74 0.05
14 48 0.68 0.28
14 49 0.44 0.21
15 16 0.19 0.05
15 17 0.5 0.17
15 18 0.24 0.16
15 19 0.5 0.21
15 20 0.43 0.22
15 21 0.6 0.12
15 22 0.66 0.16
15 23 0.42 0.14
15 24 0.35 0.24
15 25 0.64 0.21
15 26 0.55 0.28
15 27 0.46 0.26
15 28 0.41 0.19
15 29 0.61 0.21
15 30 0.71 0.22
15 31 0.56 0.3
15 32 0.4 0.2
15 33 0.67 0.14
15 34 0.6 0.14
15 35 0.59 0.25
15 36 0.55 0.27
15 37 0.6 0.29
15 38 0.42 0.25
15 39 0.44 0.14
15 40 0.64 0.28
15 41 0.6 0.25
15 42 0.52 0.27
15 43 0.56 0.17
15 44 0.49 0.19
15 45 0.48 0.24
15 46 0.41 0.27
15 47 0.4 0.21
15 48 0.66 0.21
15 49 0.45 0.28
16 17 0.48 0.12
16 18 0.33 0.19
16 19 0.34 0.16
16 20 0.24 0.17
16 21 0.46 0.17
16 22 0.56 0.12
16 23 0.61 0.19
16 24 0.54 0.19
16 25 0.58 0.16
16 26 0.52 0.27
16 27 0.56 0.26
16 28 0.6 0.21
16 29 0.42 0.26
16 30 0.52 0.23
16 31 0.68 0.35
16 32 0.59 0.22
16 33 0.59 0.16
16 34 0.51 0.16
16 35 0.5 0.2
16 36 0.36 0.22
16 37 0.6 0.32
16 38 0.38 0.2
16 39 0.45 0.19
16 40 0.64 0.3
16 41 0.6 0.2
16 42 0.48 0.22
16 43 0.56 0.22
16 44 0.48 0.22
16 45 0.4 0.25
16 46 0.22 0.22
16 47 0.44 0.23
16 48 0.5 0.26
16 49 0.56 0.32
17 18 0.46 0.18
17 19 0.5 0.04
17 20 0.42 0.1
17 21 0.5 0.23
17 22 0.53 0.24
17 23 0.8 0.16
17 24 0.57 0.21
17 25 0.52 0.17
17 26 0.48 0.21
17 27 0.66 0.16
17 28 0.54 0.3
17 29 0.72 0.26
17 30 0.52 0.16
17 31 0.32 0.3
17 32 0.6 0.1
17 33 0.78 0.26
17 34 0.55 0.26
17 35 0.58 0.13
17 36 0.45 0.21
17 37 0.56 0.2
17 38 0.65 0.29
17 39 0.57 0.24
17 40 0.61 0.26
17 41 0.57 0.27
17 42 0.36 0.22
17 43 0.59 0.21
17 44 0.52 0.2
17 45 0.54 0.24
17 46 0.26 0.15
17 47 0.43 0.2
17 48 0.68 0.26
17 49 0.73 0.27
18 19 0.59 0.14
18 20 0.4 0.08
18 21 0.44 0.21
18 22 0.57 0.27
18 23 0.66 0.26
18 24 0.59 0.12
18 25 0.56 0.16
18 26 0.56 0.26
18 27 0.6 0.25
18 28 0.65 0.13
18 29 0.64 0.21
18 30 0.5 0.06
18 31 0.66 0.2
18 32 0.48 0.2
18 33 0.43 0.08
18 34 0.75 0.08
18 35 0.67 0.2
18 36 0.69 0.28
18 37 0.78 0.2
18 38 0.45 0.16
18 39 0.61 0.07
18 40 0.4 0.16
18 41 0.62 0.27
18 42 0.28 0.22
18 43 0.8 0.23
18 44 0.62 0.18
18 45 0.48 0.18
18 46 0.2 0.16
18 47 0.64 0.15
18 48 0.71 0.22
18 49 0.66 0.23
19 20 0.37 0.06
19 21 0.6 0.22
19 22 0.68 0.22
19 23 0.66 0.12
19 24 0.47 0.18
19 25 0.68 0.21
19 26 0.24 0.17
19 27 0.6 0.19
19 28 0.58 0.27
19 29 0.72 0.24
19 30 0.5 0.12
19 31 0.52 0.26
19 32 0.46 0.06
19 33 0.58 0.22
19 34 0.51 0.22
19 35 0.5 0.17
19 36 0.7 0.25
19 37 0.64 0.21
19 38 0.72 0.25
19 39 0.36 0.21
19 40 0.57 0.3
19 41 0.82 0.23
19 42 0.51 0.26
19 43 0.44 0.17
19 44 0.7 0.16
19 45 0.65 0.2
19 46 0.56 0.19
19 47 0.48 0.24
19 48 0.62 0.28
19 49 0.56 0.27
20 21 0.42 0.26
20 22 0.44 0.28
20 23 0.63 0.18
20 24 0.58 0.12
20 25 0.75 0.21
20 26 0.58 0.23
20 27 0.7 0.23
20 28 0.51 0.21
20 29 0.44 0.22
20 30 0.68 0.06
20 31 0.58 0.2
20 32 0.46 0.12
20 33 0.41 0.16
20 34 0.66 0.16
20 35 0.5 0.17
20 36 0.56 0.25
20 37 0.6 0.2
20 38 0.48 0.24
20 39 0.21 0.15
20 40 0.63 0.24
20 41 0.58 0.22
20 42 0.68 0.25
20 43 0.5 0.23
20 44 0.65 0.22
20 45 0.59 0.17
20 46 0.46 0.24
20 47 0.6 0.19
20 48 0.62 0.22
20 49 0.4 0.23
21 22 0.28 0.22
21 23 0.44 0.26
21 24 0.48 0.26
21 25 0.6 0.24
21 26 0.48 0.16
21 27 0.64 0.26
21 28 0.48 0.26
21 29 0.48 0.28
21 30 0.76 0.2
21 31 0.66 0.28
21 32 0.6 0.28
21 33 0.55 0.24
21 34 0.32 0.24
21 35 0.34 0.2
21 36 0.48 0.28
21 37 0.54 0.24
21 38 0.6 0.24
21 39 0.63 0.26
21 40 0.46 0.35
21 41 0.46 0.33
21 42 0.5 0.26
21 43 0.83 0.29
21 44 0.3 0.24
21 45 0.52 0.32
21 46 0.24 0.24
21 47 0.46 0.28
21 48 0.48 0.18
21 49 0.64 0.16
22 23 0.35 0.1
22 24 0.66 0.31
22 25 0.64 0.28
22 26 0.7 0.18
22 27 0.65 0.22
22 28 0.44 0.3
22 29 0.76 0.25
22 30 0.61 0.28
22 31 0.72 0.26
22 32 0.6 0.16
22 33 0.49 0.25
22 34 0.6 0.25
22 35 0.5 0.24
22 36 0.2 0.16
22 37 0.38 0.22
22 38 0.46 0.24
22 39 0.65 0.2
22 40 0.69 0.26
22 41 0.66 0.28
22 42 0.61 0.3
22 43 0.67 0.19
22 44 0.41 0.19
22 45 0.34 0.28
22 46 0.52 0.32
22 47 0.62 0.18
22 48 0.44 0.18
22 49 0.5 0.28
23 24 0.57 0.26
23 25 0.71 0.21
23 26 0.42 0.16
23 27 0.3 0.12
23 28 0.52 0.21
23 29 0.6 0.27
23 30 0.51 0.24
23 31 0.66 0.28
23 32 0.67 0.06
23 33 0.58 0.24
23 34 0.76 0.24
23 35 0.62 0.18
23 36 0.53 0.19
23 37 0.33 0.21
23 38 0.78 0.27
23 39 0.72 0.2
23 40 0.64 0.29
23 41 0.64 0.27
23 42 0.68 0.2
23 43 0.71 0.09
23 44 0.28 0.09
23 45 0.45 0.2
23 46 0.68 0.22
23 47 0.65 0.25
23 48 0.65 0.21
23 49 0.23 0.18
24 25 0.41 0.12
24 26 0.71 0.23
24 27 0.7 0.14
24 28 0.48 0.25
24 29 0.56 0.26
24 30 0.58 0.06
24 31 0.76 0.16
24 32 0.57 0.2
24 33 0.81 0.2
24 34 0.67 0.2
24 35 0.24 0.08
24 36 0.62 0.16
24 37 0.28 0.2
24 38 0.72 0.24
24 39 0.79 0.19
24 40 0.46 0.28
24 41 0.54 0.31
24 42 0.82 0.18
24 43 0.6 0.26
24 44 0.66 0.24
24 45 0.56 0.06
24 46 0.52 0.26
24 47 0.41 0.23
24 48 0.44 0.26
24 49 0.34 0.22
25 26 0.7 0.11
25 27 0.41 0.1
25 28 0.5 0.21
25 29 0.61 0.28
25 30 0.46 0.18
25 31 0.63 0.22
25 32 0.5 0.27
25 33 0.4 0.24
25 34 0.58 0.24
25 35 0.54 0.04
25 36 0.46 0.12
25 37 0.69 0.16
25 38 0.67 0.3
25 39 0.68 0.23
25 40 0.47 0.21
25 41 0.73 0.19
25 42 0.5 0.06
25 43 0.87 0.22
25 44 0.58 0.12
25 45 0.3 0.18
25 46 0.36 0.23
25 47 0.71 0.17
25 48 0.78 0.24
25 49 0.52 0.16
26 27 0.36 0.21
26 28 0.54 0.32
26 29 0.55 0.33
26 30 0.7 0.26
26 31 0.61 0.12
26 32 0.26 0.22
26 33 0.58 0.31
26 34 0.72 0.31
26 35 0.56 0.15
26 36 0.6 0.23
26 37 0.65 0.27
26 38 0.62 0.4
26 39 0.6 0.19
26 40 0.42 0.25
26 41 0.69 0.3
26 42 0.63 0.17
26 43 0.47 0.25
26 44 0.7 0.23
26 45 0.59 0.22
26 46 0.72 0.34
26 47 0.46 0.24
26 48 0.82 0.34
26 49 0.65 0.27
27 28 0.55 0.23
27 29 0.3 0.18
27 30 0.46 0.19
27 31 0.74 0.28
27 32 0.62 0.18
27 33 0.54 0.18
27 34 0.71 0.18
27 35 0.46 0.06
27 36 0.48 0.14
27 37 0.63 0.18
27 38 0.65 0.31
27 39 0.74 0.26
27 40 0.34 0.24
27 41 0.74 0.29
27 42 0.4 0.16
27 43 0.55 0.21
27 44 0.58 0.21
27 45 0.58 0.18
27 46 0.4 0.3
27 47 0.64 0.25
27 48 0.46 0.33
27 49 0.53 0.2
28 29 0.58 0.3
28 30 0.56 0.19
28 31 0.57 0.26
28 32 0.52 0.24
28 33 0.83 0.05
28 34 0.52 0.05
28 35 0.72 0.25
28 36 0.56 0.22
28 37 0.64 0.23
28 38 0.73 0.26
28 39 0.72 0.2
28 40 0.56 0.12
28 41 0.34 0.22
28 42 0.76 0.15
28 43 0.52 0.12
28 44 0.61 0.21
28 45 0.68 0.21
28 46 0.66 0.23
28 47 0.6 0.12
28 48 0.74 0.3
28 49 0.62 0.28
29 30 0.56 0.2
29 31 0.62 0.3
29 32 0.64 0.3
29 33 0.78 0.29
29 34 0.62 0.29
29 35 0.32 0.24
29 36 0.74 0.28
29 37 0.7 0.3
29 38 0.78 0.32
29 39 0.65 0.14
29 40 0.62 0.25
29 41 0.71 0.23
29 42 0.36 0.31
29 43 0.62 0.18
29 44 0.68 0.32
29 45 0.68 0.32
29 46 0.5 0.36
29 47 0.78 0.33
29 48 0.47 0.36
29 49 0.46 0.34
30 31 0.71 0.14
30 32 0.44 0.18
30 33 0.66 0.14
30 34 0.71 0.14
30 35 0.54 0.14
30 36 0.41 0.22
30 37 0.3 0.14
30 38 0.5 0.18
30 39 0.78 0.13
30 40 0.5 0.22
30 41 0.32 0.28
30 42 0.5 0.2
30 43 0.69 0.26
30 44 0.46 0.24
30 45 0.5 0.12
30 46 0.58 0.22
30 47 0.67 0.17
30 48 0.32 0.2
30 49 0.28 0.21
31 32 0.62 0.24
31 33 0.76 0.21
31 34 0.64 0.21
31 35 0.65 0.24
31 36 0.53 0.32
31 37 0.48 0.28
31 38 0.6 0.28
31 39 0.73 0.16
31 40 0.6 0.21
31 41 0.82 0.39
31 42 0.68 0.28
31 43 0.4 0.36
31 44 0.56 0.19
31 45 0.46 0.1
31 46 0.46 0.3
31 47 0.7 0.24
31 48 0.48 0.31
31 49 0.52 0.24
32 33 0.46 0.28
32 34 0.49 0.28
32 35 0.5 0.23
32 36 0.4 0.25
32 37 0.48 0.15
32 38 0.5 0.29
32 39 0.67 0.26
32 40 0.56 0.35
32 41 0.43 0.25
32 42 0.62 0.26
32 43 0.73 0.15
32 44 0.61 0.15
32 45 0.68 0.14
32 46 0.52 0.25
32 47 0.4 0.3
32 48 0.68 0.27
32 49 0.7 0.21
33 34 0.82 0.0
33 35 0.57 0.24
33 36 0.67 0.23
33 37 0.66 0.26
33 38 0.86 0.21
33 39 0.62 0.15
33 40 0.59 0.14
33 41 0.69 0.19
33 42 0.71 0.2
33 43 0.75 0.15
33 44 0.6 0.16
33 45 0.3 0.16
33 46 0.58 0.2
33 47 0.75 0.07
33 48 0.42 0.25
33 49 0.52 0.29
34 35 0.56 0.24
34 36 0.62 0.23
34 37 0.52 0.26
34 38 0.7 0.21
34 39 0.87 0.15
34 40 0.54 0.14
34 41 0.39 0.19
34 42 0.78 0.2
34 43 0.64 0.15
34 44 0.62 0.16
34 45 0.68 0.16
34 46 0.55 0.2
34 47 0.26 0.07
34 48 0.62 0.25
34 49 0.66 0.29
35 36 0.62 0.08
35 37 0.52 0.12
35 38 0.79 0.26
35 39 0.7 0.2
35 40 0.55 0.25
35 41 0.42 0.23
35 42 0.68 0.1
35 43 0.84 0.18
35 44 0.6 0.16
35 45 0.68 0.14
35 46 0.58 0.27
35 47 0.48 0.21
35 48 0.52 0.28
35 49 0.54 0.14
36 37 0.54 0.12
36 38 0.29 0.26
36 39 0.72 0.28
36 40 0.54 0.27
36 41 0.54 0.24
36 42 0.46 0.18
36 43 0.47 0.1
36 44 0.57 0.24
36 45 0.46 0.22
36 46 0.5 0.35
36 47 0.52 0.19
36 48 0.64 0.32
36 49 0.3 0.22
37 38 0.8 0.32
37 39 0.8 0.27
37 40 0.74 0.23
37 41 0.62 0.21
37 42 0.71 0.14
37 43 0.53 0.12
37 44 0.61 0.23
37 45 0.51 0.26
37 46 0.78 0.34
37 47 0.5 0.31
37 48 0.52 0.3
37 49 0.38 0.24
38 39 0.6 0.23
38 40 0.31 0.21
38 41 0.55 0.22
38 42 0.42 0.24
38 43 0.76 0.34
38 44 0.7 0.18
38 45 0.56 0.3
38 46 0.6 0.31
38 47 0.44 0.28
38 48 0.73 0.06
38 49 0.59 0.31
39 40 0.42 0.18
39 41 0.52 0.28
39 42 0.48 0.29
39 43 0.63 0.24
39 44 0.44 0.18
39 45 0.38 0.18
39 46 0.66 0.23
39 47 0.81 0.22
39 48 0.74 0.29
39 49 0.53 0.3
40 41 0.65 0.22
40 42 0.68 0.15
40 43 0.63 0.24
40 44 0.54 0.24
40 45 0.68 0.3
40 46 0.5 0.11
40 47 0.69 0.08
40 48 0.7 0.27
40 49 0.52 0.28
41 42 0.75 0.13
41 43 0.56 0.33
41 44 0.58 0.26
41 45 0.74 0.29
41 46 0.56 0.33
41 47 0.54 0.22
41 48 0.64 0.28
41 49 0.6 0.26
42 43 0.7 0.26
42 44 0.66 0.18
42 45 0.76 0.24
42 46 0.48 0.26
42 47 0.52 0.23
42 48 0.43 0.3
42 49 0.74 0.19
43 44 0.56 0.18
43 45 0.7 0.29
43 46 0.78 0.31
43 47 0.82 0.22
43 48 0.74 0.28
43 49 0.48 0.27
44 45 0.7 0.18
44 46 0.42 0.31
44 47 0.4 0.16
44 48 0.61 0.12
44 49 0.51 0.13
45 46 0.28 0.2
45 47 0.51 0.23
45 48 0.72 0.3
45 49 0.22 0.19
46 47 0.46 0.19
46 48 0.65 0.37
46 49 0.5 0.39
47 48 0.69 0.28
47 49 0.42 0.26
48 49 0.6 0.25
